(set-logic NRA)
(assert (exists ((z Real)) (forall ((y Real)) (exists ((x Real)) (and (= (* (+ (- 1) z) (+ 60 (* z (+ (- 206) (* z (+ 136 (* z (+ 61 (* z (+ 9 (* z (+ 8 (* z 16))))))))))))) 0) (=  (+ (+ (- 595666) (* z (+ 1407741 (* z (+ (- 481837) (* z (+ (- 251555) (* z (+ (- 4197) (* z (+ 1272 (* z (- 76752))))))))))))) (* y (* y 1988))) 0) (=  (+ (+ 288814 (* z (+ (- 680336) (* z (+ 232833 (* z (+ 122062 (* z (+ 2111 (* z (+ (- 600) (* z 37104)))))))))))) (* x 3976)) 0))))))
(apply qe)
